NAME: tsp35_5
COMMENT: 35-tsp problem (Padberg/Rinaldi)
TYPE: TSP
DIMENSION: 35
EDGE_WEIGHT_TYPE : EUC_2D
NODE_COORD_SECTION
1 19 3
2 26 0
3 27 37
4 31 34
5 10 34
6 39 5
7 32 20
8 14 3
9 40 3
10 20 1
11 28 5
12 20 4
13 11 9
14 38 13
15 1 39
16 15 34
17 28 19
18 28 19
19 10 14
20 25 31
21 24 11
22 36 29
23 8 28
24 22 19
25 31 6
26 22 39
27 30 24
28 9 39
29 21 16
30 16 36
31 30 35
32 30 22
33 0 11
34 36 16
35 40 22
